File : Instances/p57
Used 70s
29835

1 0 0 1 0 1 0 0 1 1 0 1 1 0 1 0 1 0 0 0 1 0 1 1 1 1 1 1 0 1 
22 26 24 22 5 12 24 27 22 27 29 14 20 3 11 11 3 20 22 0 27 16 5 24 23 27 27 14 29 5 26 26 26 16 27 12 20 8 24 16 25 9 12 29 8 26 3 16 14 14 24 16 24 16 8 12 11 9 22 25 29 0 25 8 3 11 5 14 14 12 22 12 26 9 23 23 20 23 8 16 23 0 9 25 29 20 26 5 27 25 14 26 25 25 0 3 11 12 0 11 14 16 25 22 29 0 29 24 22 3 9 29 27 12 12 8 11 25 14 8 9 11 14 26 26 16 5 11 26 0 11 24 25 20 23 9 3 3 11 14 12 22 11 11 25 5 27 16 27 25 24 0 23 0 8 11 5 16 3 3 3 27 23 24 5 27 5 29 3 16 3 20 14 20 26 0 0 20 29 20 5 16 24 12 12 8 11 23 0 16 5 16 26 29 25 29 25 5 23 14 
